 Code  1332
 Dimension, Fixed Cost
   100        3000
 Facility, Client, Transportation Cost
     1        9           1
     1       10           0
     1       15           4
     1       17           0
     1       22           0
     1       33           4
     1       37           1
     1       50           0
     1       51           2
     1       77           3
     2       23           3
     2       53           1
     2       54           3
     2       76           1
     2       84           4
     2       97           4
     3        7           4
     3       10           1
     3       13           2
     3       31           2
     3       39           1
     3       64           4
     3       69           2
     3       78           1
     3       85           1
     3       96           0
     4        1           1
     4        3           3
     4        6           2
     4        7           1
     4       12           1
     4       25           1
     4       33           1
     4       37           3
     4       49           4
     4       66           0
     4       68           2
     4       74           1
     4       84           0
     4       98           4
     5        3           1
     5       25           0
     5       38           4
     5       39           4
     5       40           0
     5       63           0
     5       74           1
     5       99           3
     6        5           0
     6       11           1
     6       20           0
     6       30           4
     6       42           0
     6       49           0
     6       74           0
     7        4           4
     7        7           1
     7       12           1
     7       21           0
     7       26           4
     7       34           2
     7       39           4
     7       40           4
     7       53           4
     7       63           2
     7       85           4
     7       93           0
     8        6           0
     8       18           1
     8       24           4
     8       30           2
     8       39           2
     8       47           0
     8       56           1
     8       57           2
     8       59           2
     8       62           3
     8       64           4
     8       68           2
     8       75           1
     9       17           2
     9       20           0
     9       50           2
     9       51           3
     9       64           2
     9       86           0
     9       99           4
    10       10           4
    10       18           0
    10       57           4
    10       59           1
    10       67           2
    10       72           3
    10       79           3
    10       93           0
    10       95           2
    11       18           2
    11       27           0
    11       31           0
    11       34           1
    11       51           1
    11       69           4
    11       87           0
    11       90           2
    11       91           1
    11       97           1
    12        4           1
    12       35           1
    12       42           2
    12       48           0
    12       71           1
    12       75           0
    12       81           4
    12       91           2
    12       93           3
    13        7           0
    13       13           0
    14        5           4
    14       16           2
    14       34           4
    14       38           3
    14       47           1
    14       50           0
    14       80           0
    14       83           4
    14       86           1
    14       94           4
    15        5           0
    15       20           2
    15       33           1
    15       52           0
    15       55           3
    15       88           1
    15       95           3
    16        2           4
    16        5           1
    16       26           3
    16       54           2
    16       58           4
    16       69           4
    16       84           1
    16       91           3
    16       99           2
    16      100           4
    17        8           1
    17        9           2
    17       18           2
    17       19           1
    17       21           4
    17       22           3
    17       25           4
    17       29           2
    17       33           4
    17       38           4
    17       48           4
    17       54           4
    17       58           2
    17       69           4
    17       70           4
    17       80           1
    17       88           0
    17       89           0
    17       92           2
    17       93           1
    18       25           3
    18       40           1
    18       43           0
    18       61           4
    18       65           3
    18       84           4
    18       89           1
    19       15           1
    19       46           3
    19       60           4
    19       68           3
    19       83           3
    19       84           4
    19       89           0
    20        4           4
    20        6           2
    20       14           0
    20       16           0
    20       28           2
    20       40           2
    20       51           3
    20       62           4
    20       63           2
    20       83           0
    20       94           0
    21       12           0
    21       23           4
    21       27           0
    21       53           2
    21       54           1
    21       83           1
    21       86           1
    22        3           1
    22       56           3
    22       72           3
    22       76           1
    22       79           4
    22       94           1
    23        2           0
    23       11           0
    23       17           3
    23       24           1
    23       42           0
    23       45           2
    23       48           3
    23       49           4
    23       56           1
    23       57           2
    23       67           1
    23       72           2
    23       77           4
    23       79           4
    23       92           1
    24       38           0
    24       41           0
    24       44           3
    24       47           4
    24       52           0
    24       53           0
    24       58           1
    24       63           1
    24       70           3
    24       71           4
    24       73           3
    24       93           4
    24      100           3
    25        2           1
    25        4           0
    25       10           4
    25       28           3
    25       30           0
    25       42           1
    25       47           3
    25       75           2
    25       86           2
    25       89           0
    25       98           2
    26        1           1
    26        3           3
    26        8           3
    26       11           2
    26       21           1
    26       56           2
    26       73           3
    26       78           4
    26       95           1
    27        8           3
    27       16           0
    27       28           3
    27       40           2
    27       45           0
    27       46           0
    27       48           3
    27       55           2
    27       79           1
    27       85           4
    28        1           1
    28        4           3
    28       32           1
    28       49           3
    28       53           3
    28       65           2
    28       66           3
    28       69           0
    28       71           0
    28       82           0
    28       83           4
    29       14           0
    29       16           4
    29       33           1
    29       34           3
    29       36           3
    29       37           3
    29       41           1
    29       47           3
    29       74           4
    30       23           4
    30       26           2
    30       27           4
    30       31           2
    30       35           2
    30       44           1
    30       45           4
    30       65           4
    30       85           1
    31        9           2
    31       17           2
    31       24           1
    31       41           3
    31       46           4
    31       53           1
    31       64           3
    31       80           2
    31       93           2
    31       94           1
    31       95           2
    31       96           2
    32        3           1
    32        5           1
    32       11           4
    32       27           2
    32       28           0
    32       29           4
    32       32           0
    32       36           4
    32       53           1
    32       57           3
    32       60           4
    33       19           0
    33       29           2
    33       35           1
    33       43           1
    33       56           0
    33       69           3
    33       71           4
    33       78           1
    33       98           0
    34        1           0
    34        6           2
    34       17           2
    34       51           4
    34       53           0
    34       63           4
    34       64           1
    34       65           4
    34       80           0
    34       81           4
    34       84           0
    34       92           4
    35       11           1
    35       20           1
    35       42           1
    35       52           2
    35       65           1
    35       95           3
    36        4           4
    36       16           2
    36       20           1
    36       24           3
    36       25           0
    36       50           3
    36       55           1
    36       59           0
    36       74           1
    36       96           2
    37       15           1
    37       21           3
    37       22           0
    37       33           4
    37       53           3
    37       58           4
    37       59           1
    37       62           3
    37       70           4
    37       72           4
    37       76           4
    37       82           2
    37       87           0
    37       88           2
    37       98           4
    38        5           3
    38        6           0
    38       41           0
    38       42           4
    38       43           0
    38       46           4
    38       47           0
    38       65           4
    38       79           4
    38       80           1
    38       81           4
    39        2           2
    39       14           4
    39       17           0
    39       22           2
    39       26           3
    39       27           0
    39       35           1
    39       63           1
    39       68           1
    39       73           4
    39       87           4
    39       88           0
    40        3           3
    40        7           1
    40       10           0
    40       49           2
    40       52           0
    40       68           4
    40       76           1
    40      100           2
    41       13           4
    41       30           2
    41       55           3
    41       78           4
    41       84           0
    41       90           4
    42       15           2
    42       30           1
    42       37           4
    42       45           2
    42       58           3
    42       60           1
    42       74           0
    42       75           4
    42       96           2
    42       97           2
    43       12           1
    43       17           4
    43       79           1
    43       81           2
    43       85           0
    43       90           4
    43       92           0
    44       25           0
    44       57           4
    44       58           2
    44       73           0
    44       86           3
    44       95           3
    45        5           4
    45        7           3
    45       18           4
    45       21           4
    45       43           2
    45       59           1
    45       62           3
    45       63           2
    45       76           1
    45       77           4
    45       86           2
    45       87           2
    46       30           1
    46       46           0
    46       48           4
    46       50           2
    46       76           3
    46       85           4
    46       93           3
    47       23           4
    47       28           1
    47       32           3
    47       36           2
    47       41           4
    47       44           0
    47       50           1
    47       57           0
    47       65           2
    47       81           3
    47       82           3
    48       30           1
    48       41           0
    48       43           3
    48       57           2
    48       66           4
    48       82           2
    48       88           3
    48       96           0
    49        1           1
    49        2           3
    49       10           4
    49       17           4
    49       19           1
    49       26           0
    49       31           1
    49       37           1
    49       65           2
    49       74           4
    49       83           4
    49       94           2
    49       96           4
    50       21           1
    50       29           3
    50       43           3
    50       71           2
    50       72           3
    50       77           1
    50       83           1
    50      100           3
    51       11           3
    51       14           1
    51       20           4
    51       66           0
    51       67           0
    51       74           3
    51       84           1
    52        8           2
    52       28           3
    52       38           2
    52       51           0
    52       70           4
    52       73           1
    52       77           4
    52       85           0
    52       95           4
    53       32           2
    53       37           3
    53       47           3
    53       48           4
    53       68           0
    53       70           3
    53       80           4
    53       89           1
    53       94           0
    54        3           2
    54       29           3
    54       31           3
    54       36           0
    54       43           1
    54       68           1
    54       78           4
    54       79           1
    54       82           2
    54       90           4
    55       14           1
    55       19           1
    55       62           2
    55       99           4
    56        8           4
    56       13           3
    56       14           1
    56       42           1
    56       44           3
    56       49           2
    56       61           4
    56       67           2
    56       69           2
    56       85           1
    56      100           0
    57        1           3
    57       19           4
    57       21           4
    57       35           0
    57       48           1
    57       90           0
    57       92           1
    58       10           1
    58       18           1
    58       19           2
    58       22           1
    58       60           0
    58       64           1
    58       67           0
    58       69           4
    58       70           0
    58       74           3
    58       76           1
    58       88           3
    58       91           2
    58      100           4
    59        2           0
    59        8           0
    59       11           2
    59       28           0
    59       30           4
    59       52           0
    59       54           1
    59       61           0
    59       81           2
    59       82           0
    59      100           2
    60        3           0
    60        8           2
    60       29           4
    60       39           1
    60       41           4
    60       42           4
    60       50           3
    60       54           2
    60       61           1
    60       75           0
    60       78           1
    60       96           3
    60       97           1
    61        9           4
    61       16           2
    61       20           4
    61       32           3
    61       35           1
    61       59           2
    61       61           0
    61       67           4
    61       73           1
    61       93           3
    62        4           1
    62       11           4
    62       17           4
    62       22           2
    62       31           0
    62       32           4
    62       37           1
    62       39           4
    62       40           2
    62       45           0
    62       52           2
    62       75           3
    62       77           2
    62       87           4
    62       97           4
    63       44           2
    63       64           2
    63       75           3
    63       77           1
    63       90           3
    64       20           2
    64       23           1
    64       29           2
    64       35           2
    64       42           0
    64       46           2
    64       51           2
    64       58           3
    64       72           2
    64       83           4
    65       36           1
    65       37           1
    65       38           2
    65       40           4
    65       43           4
    65       50           0
    65       52           1
    65       56           2
    65       59           0
    65       63           0
    65       64           1
    65       66           0
    65       72           1
    65       98           3
    66        1           1
    66       13           3
    66       14           4
    66       15           4
    66       16           0
    66       24           4
    66       26           4
    66       35           0
    66       39           4
    66       50           1
    66       76           2
    66       78           2
    66       90           4
    67        2           4
    67        6           4
    67        9           4
    67       25           2
    67       28           3
    67       37           3
    67       40           3
    67       58           0
    67       60           3
    67       62           3
    67       67           4
    67       69           0
    67       75           4
    67       80           1
    67       88           4
    68       14           0
    68       23           3
    68       27           3
    68       30           1
    68       44           3
    68       47           0
    68       61           4
    68       62           1
    68       92           1
    68       97           3
    69       13           3
    69       15           2
    69       22           0
    69       27           0
    69       29           2
    69       44           2
    69       51           0
    69       56           4
    69       68           2
    69       82           3
    69       85           4
    69       87           3
    69       89           1
    70        2           4
    70        6           3
    70       14           2
    70       22           2
    70       41           4
    70       43           2
    70       52           0
    70       55           3
    70       61           1
    70       63           2
    70       65           1
    70       92           2
    71        6           4
    71        7           3
    71       13           1
    71       15           4
    71       18           0
    71       32           4
    71       47           3
    71       62           2
    71       71           2
    71       79           2
    71       85           4
    71       94           2
    71       99           4
    72        8           3
    72       12           4
    72       16           1
    72       21           1
    72       27           2
    72       31           0
    72       76           1
    72       93           3
    72       97           3
    72       98           0
    73       19           3
    73       25           1
    73       33           3
    73       34           3
    73       36           3
    73       40           3
    73       49           4
    73       64           2
    73       66           4
    73       67           2
    73       81           0
    73       89           1
    73       92           0
    73       95           4
    74       31           2
    74       32           3
    74       36           0
    74       48           1
    74       49           2
    74       77           2
    74       80           3
    74       83           1
    74       94           1
    74       96           1
    74      100           1
    75        3           3
    75        9           1
    75       46           0
    75       78           4
    75       82           4
    75       91           2
    76       15           3
    76       19           2
    76       55           2
    76       57           4
    76       59           1
    76       60           3
    76       70           1
    76       75           4
    76       80           1
    76       81           1
    76       86           3
    76       87           4
    76       90           3
    76       94           3
    77       18           2
    77       39           3
    77       68           2
    77       70           3
    77       71           3
    77       82           0
    77       87           3
    77       91           4
    78        4           3
    78       10           2
    78       27           2
    78       61           3
    78       65           0
    78       69           2
    78       78           4
    78       86           0
    78       99           3
    79        9           2
    79       12           0
    79       26           2
    79       31           4
    79       34           3
    79       42           3
    79       63           4
    79       67           0
    79       71           1
    79       89           4
    79       98           4
    80        4           3
    80       11           0
    80       19           2
    80       24           4
    80       39           0
    80       51           4
    80       62           4
    80       81           4
    80       97           2
    80       99           2
    81        3           2
    81       26           0
    81       34           1
    81       78           2
    81       95           4
    82        9           1
    82       18           3
    82       23           1
    82       27           2
    82       29           1
    82       31           2
    82       37           2
    82       38           0
    82       40           2
    82       41           4
    82       45           4
    82       48           0
    82       53           0
    82       56           0
    82       66           4
    82       73           0
    82       77           3
    82       97           2
    83        8           0
    83       19           2
    83       45           1
    83       49           1
    83       59           1
    83       88           1
    83       94           3
    84        1           3
    84       12           3
    84       32           2
    84       33           4
    84       34           2
    84       70           4
    84       99           4
    85       13           0
    85       23           4
    85       24           1
    85       26           3
    85       46           2
    85       49           1
    85       54           4
    85       56           1
    85       58           0
    85       60           2
    85       83           3
    85       86           4
    85      100           3
    86        2           3
    86        5           0
    86       12           4
    86       29           4
    86       73           3
    86       77           4
    86       80           3
    87        1           0
    87        8           0
    87       30           2
    87       33           1
    87       38           0
    87       52           2
    87       54           3
    87       73           4
    87       97           4
    87       99           3
    88        6           2
    88       12           4
    88       13           2
    88       32           2
    88       39           2
    88       59           4
    88       66           1
    88       67           4
    88       91           1
    88       98           1
    89        9           4
    89       25           1
    89       36           0
    89       44           0
    89       45           0
    89       60           0
    89       68           0
    89       91           0
    90       10           0
    90       12           2
    90       22           4
    90       48           4
    90       60           4
    90       75           0
    90       76           1
    90       90           3
    90       98           4
    91        5           0
    91       10           2
    91       21           4
    91       35           2
    91       43           1
    91       46           3
    91       55           4
    91       57           0
    91       72           2
    91       79           4
    91       95           3
    91      100           4
    92        1           0
    92        6           3
    92       38           1
    92       44           3
    92       50           1
    92       66           0
    93       15           0
    93       24           1
    93       28           0
    93       33           1
    93       34           3
    93       54           4
    93       55           3
    93       57           2
    93       66           2
    93       70           3
    93       71           0
    93       72           3
    94        2           4
    94       18           4
    94       23           3
    94       35           4
    94       45           3
    94       58           3
    94       61           0
    94       62           4
    94       87           3
    94       91           4
    95       13           3
    95       38           1
    95       45           4
    95       60           0
    95       82           2
    95       86           4
    95       90           1
    95       92           0
    95       98           1
    96        4           3
    96       11           4
    96       26           4
    96       34           4
    96       36           0
    96       46           0
    96       84           4
    96       93           2
    96       99           4
    97        7           1
    97       17           0
    97       23           2
    97       25           4
    97       28           4
    97       36           3
    97       41           0
    97       44           1
    97       55           3
    97       72           2
    97       81           4
    97       91           1
    97       92           3
    97       96           2
    98        7           1
    98        9           0
    98       16           2
    98       20           3
    98       24           2
    98       54           1
    98       61           3
    98       74           0
    98       79           2
    98       88           0
    98       89           2
    99        7           3
    99       14           1
    99       16           3
    99       20           4
    99       24           3
    99       51           4
    99       64           3
    99       71           0
    99       89           3
   100        5           4
   100       15           0
   100       21           3
   100       22           2
   100       47           3
   100       52           3
   100       55           3
   100       56           0
   100       73           2
   100       84           2
   100       87           3
   100       88           2
   100       96           4
